6 17 0 1 5 11 1 17 4 15 2 19 3 14
6 18 2 20 0 7 1 13 5 10 3 3 4 10
0 18 4 19 5 15 1 18 6 18 2 10 3 4
3 2 4 16 0 16 1 5 6 2 2 1 5 13
6 18 1 11 4 19 3 15 5 2 0 11 2 11
3 3 5 3 4 15 2 4 0 20 6 4 1 10
2 8 4 16 6 16 5 3 1 13 0 14 3 5
